&CONTROL
    calculation = 'nscf',
    prefix = 'gaas',
    outdir = './tmp/',
    pseudo_dir = './pseudo/',
/
&SYSTEM
    ibrav = 2, 
    celldm(1) = 10.68, 
    nat = 2, 
    ntyp = 2, 
    ecutwfc = 40.0, 
    ecutrho = 320.0,
    nbnd = 10,  ! 계산할 밴드 수 (조정 가능)
/
&ELECTRONS
    conv_thr = 1.0d-8,
    mixing_beta = 0.7,
/
K_POINTS (crystal_b)
    6
    0.000 0.000 0.000  ! Gamma
    0.500 0.000 0.000  ! X
    0.500 0.500 0.000  ! M
    0.000 0.500 0.500  ! R
    0.000 0.000 0.000  ! Gamma
/