&CONTROL
    calculation = 'scf',
    prefix = 'gaas',
    outdir = './tmp/',
    pseudo_dir = './pseudo/',
/
&SYSTEM
    ibrav = 2, 
    celldm(1) = 10.68, 
    nat = 2, 
    ntyp = 2, 
    ecutwfc = 40.0, 
    ecutrho = 320.0,
/
&ELECTRONS
    conv_thr = 1.0d-8,
    mixing_beta = 0.7,
/
ATOMIC_SPECIES
    Ga  69.723  Ga.pz-d-rrkjus.UPF
    As  74.92160  As.pz-n-rrkjus.UPF
ATOMIC_POSITIONS (alat)
    Ga 0.00 0.00 0.00
    As 0.25 0.25 0.25
K_POINTS automatic
    8 8 8 0 0 0