&CONTROL
    calculation = 'scf',
    prefix = 'pin',
    outdir = './tmp/',
    pseudo_dir = './pseudo/',
/
&SYSTEM
    ibrav = 0, 
    nat = 6,  ! 총 원자 수
    ntyp = 3,  ! 원소 종류 수
    ecutwfc = 40.0, 
    ecutrho = 320.0, 
/
&ELECTRONS
    conv_thr = 1.0d-8,
/
ATOMIC_SPECIES
    P  30.9738  P.pbe-n-rrkjus.UPF
    In  114.818  In.pbe-n-rrkjus.UPF
    N  14.0067  N.pbe-n-rrkjus.UPF
ATOMIC_POSITIONS (angstrom)
    P   0.00 0.00 0.00
    In  1.00 1.00 1.00
    N   2.00 2.00 2.00
    P   3.00 3.00 3.00
    In  4.00 4.00 4.00
    N   5.00 5.00 5.00
CELL_PARAMETERS (angstrom)
    10.0 0.0 0.0
    0.0 10.0 0.0
    0.0 0.0 20.0  ! i층의 두께 반영
K_POINTS automatic
    6 6 6 0 0 0