&CONTROL
    calculation = 'scf',
    prefix = 'pin',
    outdir = './tmp/',
    pseudo_dir = './pseudo/',
/
&SYSTEM
    ibrav = 0, 
    nat = 6,  ! 총 원자 수
    ntyp = 3,  ! 원소 종류 수
    ecutwfc = 40.0, 
    ecutrho = 320.0, 
/
&ELECTRONS
    conv_thr = 1.0d-8,
/
ATOMIC_SPECIES
    P  30.9738  P.pbe-n-rrkjus.UPF
    In  114.818  In.pbe-n-rrkjus.UPF
    N  14.0067  N.pbe-n-rrkjus.UPF
ATOMIC_POSITIONS (angstrom)
    P   0.00 0.00 0.00
    In  0.50 0.50 0.50
    N   1.00 1.00 1.00
    ...  ! 나머지 원자 위치 정의
CELL_PARAMETERS (angstrom)
    10.0 0.0 0.0
    0.0 10.0 0.0
    0.0 0.0 20.0  ! i층의 두께 반영
K_POINTS automatic
    8 8 8 0 0 0